p cnf 1952
-25 -613
-26 -616
-27 -619
-28 -622
-29 -625
-30 -628
-31 -631
-32 -634
-33 -637
-34 -640
-35 -643
-36 -646
-37 -649
-38 -652
-39 -655
-40 -658
-41 -661
-42 -664
-43 -667
-44 -670
-45 -673
-46 -676
-47 -679
-48 -682
-49 683
-50 684
-51 685
-52 686
-53 687
-54 688
-55 689
-56 690
-57 691
-58 692
-59 693
-60 694
-61 695
-62 696
-63 697
-64 698
-65 699
-66 700
-67 701
-68 -26
-68 -27
26 27 68
-69 -28
-69 -29
28 29 69
-70 -30
-70 -31
30 31 70
-71 -32
-71 -33
32 33 71
-72 -34
-72 -35
34 35 72
-73 -36
-73 -37
36 37 73
-74 -38
-74 -39
38 39 74
-75 -40
-75 -41
40 41 75
-76 -42
-76 -43
42 43 76
-77 -44
-77 -45
44 45 77
-78 -46
-78 -47
46 47 78
-79 -48
-79 -49
48 49 79
-80 -50
-80 -51
50 51 80
-81 -52
-81 -53
52 53 81
-82 -54
-82 -55
54 55 82
-83 -56
-83 -57
56 57 83
-84 -58
-84 -59
58 59 84
-85 -60
-85 -61
60 61 85
-86 -62
-86 -63
62 63 86
-87 -64
-87 -65
64 65 87
-88 -66
-88 -67
66 67 88
-89 68
-89 69
-68 -69 89
-90 70
-90 71
-70 -71 90
-91 72
-91 73
-72 -73 91
-92 74
-92 75
-74 -75 92
-93 76
-93 77
-76 -77 93
-94 78
-94 79
-78 -79 94
-95 80
-95 81
-80 -81 95
-96 82
-96 83
-82 -83 96
-97 84
-97 85
-84 -85 97
-98 86
-98 87
-86 -87 98
-99 89
-99 90
-89 -90 99
-100 91
-100 92
-91 -92 100
-101 93
-101 94
-93 -94 101
-102 95
-102 96
-95 -96 102
-103 97
-103 98
-97 -98 103
-104 99
-104 100
-99 -100 104
-105 101
-105 102
-101 -102 105
-106 88
-106 103
-88 -103 106
-107 104
-107 105
-104 -105 107
-108 106
-108 107
-106 -107 108
-109 -25
-109 26
25 -26 109
-110 25
-110 -26
-25 26 110
-111 -109
-111 -110
109 110 111
-112 25
-112 26
-25 -26 112
-113 -25
-113 -111
25 111 113
-114 25
-114 111
-25 -111 114
-115 -113
-115 -114
113 114 115
-116 25
-116 -111
-25 111 116
-117 -112
-117 -116
112 116 117
-118 -26
-118 27
26 -27 118
-119 26
-119 -27
-26 27 119
-120 -118
-120 -119
118 119 120
-121 26
-121 27
-26 -27 121
-122 117
-122 -120
-117 120 122
-123 -117
-123 120
117 -120 123
-124 -122
-124 -123
122 123 124
-125 -117
-125 -120
117 120 125
-126 -121
-126 -125
121 125 126
-127 -27
-127 28
27 -28 127
-128 27
-128 -28
-27 28 128
-129 -127
-129 -128
127 128 129
-130 27
-130 28
-27 -28 130
-131 126
-131 -129
-126 129 131
-132 -126
-132 129
126 -129 132
-133 -131
-133 -132
131 132 133
-134 -126
-134 -129
126 129 134
-135 -130
-135 -134
130 134 135
-136 -28
-136 29
28 -29 136
-137 28
-137 -29
-28 29 137
-138 -136
-138 -137
136 137 138
-139 28
-139 29
-28 -29 139
-140 135
-140 -138
-135 138 140
-141 -135
-141 138
135 -138 141
-142 -140
-142 -141
140 141 142
-143 -135
-143 -138
135 138 143
-144 -139
-144 -143
139 143 144
-145 -29
-145 30
29 -30 145
-146 29
-146 -30
-29 30 146
-147 -145
-147 -146
145 146 147
-148 29
-148 30
-29 -30 148
-149 144
-149 -147
-144 147 149
-150 -144
-150 147
144 -147 150
-151 -149
-151 -150
149 150 151
-152 -144
-152 -147
144 147 152
-153 -148
-153 -152
148 152 153
-154 -30
-154 31
30 -31 154
-155 30
-155 -31
-30 31 155
-156 -154
-156 -155
154 155 156
-157 30
-157 31
-30 -31 157
-158 153
-158 -156
-153 156 158
-159 -153
-159 156
153 -156 159
-160 -158
-160 -159
158 159 160
-161 -153
-161 -156
153 156 161
-162 -157
-162 -161
157 161 162
-163 -31
-163 32
31 -32 163
-164 31
-164 -32
-31 32 164
-165 -163
-165 -164
163 164 165
-166 31
-166 32
-31 -32 166
-167 162
-167 -165
-162 165 167
-168 -162
-168 165
162 -165 168
-169 -167
-169 -168
167 168 169
-170 -162
-170 -165
162 165 170
-171 -166
-171 -170
166 170 171
-172 -32
-172 33
32 -33 172
-173 32
-173 -33
-32 33 173
-174 -172
-174 -173
172 173 174
-175 32
-175 33
-32 -33 175
-176 171
-176 -174
-171 174 176
-177 -171
-177 174
171 -174 177
-178 -176
-178 -177
176 177 178
-179 -171
-179 -174
171 174 179
-180 -175
-180 -179
175 179 180
-181 -33
-181 34
33 -34 181
-182 33
-182 -34
-33 34 182
-183 -181
-183 -182
181 182 183
-184 33
-184 34
-33 -34 184
-185 180
-185 -183
-180 183 185
-186 -180
-186 183
180 -183 186
-187 -185
-187 -186
185 186 187
-188 -180
-188 -183
180 183 188
-189 -184
-189 -188
184 188 189
-190 -34
-190 35
34 -35 190
-191 34
-191 -35
-34 35 191
-192 -190
-192 -191
190 191 192
-193 34
-193 35
-34 -35 193
-194 189
-194 -192
-189 192 194
-195 -189
-195 192
189 -192 195
-196 -194
-196 -195
194 195 196
-197 -189
-197 -192
189 192 197
-198 -193
-198 -197
193 197 198
-199 -35
-199 36
35 -36 199
-200 35
-200 -36
-35 36 200
-201 -199
-201 -200
199 200 201
-202 35
-202 36
-35 -36 202
-203 198
-203 -201
-198 201 203
-204 -198
-204 201
198 -201 204
-205 -203
-205 -204
203 204 205
-206 -198
-206 -201
198 201 206
-207 -202
-207 -206
202 206 207
-208 -36
-208 37
36 -37 208
-209 36
-209 -37
-36 37 209
-210 -208
-210 -209
208 209 210
-211 36
-211 37
-36 -37 211
-212 207
-212 -210
-207 210 212
-213 -207
-213 210
207 -210 213
-214 -212
-214 -213
212 213 214
-215 -207
-215 -210
207 210 215
-216 -211
-216 -215
211 215 216
-217 -37
-217 38
37 -38 217
-218 37
-218 -38
-37 38 218
-219 -217
-219 -218
217 218 219
-220 37
-220 38
-37 -38 220
-221 216
-221 -219
-216 219 221
-222 -216
-222 219
216 -219 222
-223 -221
-223 -222
221 222 223
-224 -216
-224 -219
216 219 224
-225 -220
-225 -224
220 224 225
-226 -38
-226 39
38 -39 226
-227 38
-227 -39
-38 39 227
-228 -226
-228 -227
226 227 228
-229 38
-229 39
-38 -39 229
-230 225
-230 -228
-225 228 230
-231 -225
-231 228
225 -228 231
-232 -230
-232 -231
230 231 232
-233 -225
-233 -228
225 228 233
-234 -229
-234 -233
229 233 234
-235 -39
-235 40
39 -40 235
-236 39
-236 -40
-39 40 236
-237 -235
-237 -236
235 236 237
-238 39
-238 40
-39 -40 238
-239 234
-239 -237
-234 237 239
-240 -234
-240 237
234 -237 240
-241 -239
-241 -240
239 240 241
-242 -234
-242 -237
234 237 242
-243 -238
-243 -242
238 242 243
-244 -40
-244 41
40 -41 244
-245 40
-245 -41
-40 41 245
-246 -244
-246 -245
244 245 246
-247 40
-247 41
-40 -41 247
-248 243
-248 -246
-243 246 248
-249 -243
-249 246
243 -246 249
-250 -248
-250 -249
248 249 250
-251 -243
-251 -246
243 246 251
-252 -247
-252 -251
247 251 252
-253 -41
-253 42
41 -42 253
-254 41
-254 -42
-41 42 254
-255 -253
-255 -254
253 254 255
-256 41
-256 42
-41 -42 256
-257 252
-257 -255
-252 255 257
-258 -252
-258 255
252 -255 258
-259 -257
-259 -258
257 258 259
-260 -252
-260 -255
252 255 260
-261 -256
-261 -260
256 260 261
-262 -42
-262 43
42 -43 262
-263 42
-263 -43
-42 43 263
-264 -262
-264 -263
262 263 264
-265 42
-265 43
-42 -43 265
-266 261
-266 -264
-261 264 266
-267 -261
-267 264
261 -264 267
-268 -266
-268 -267
266 267 268
-269 -261
-269 -264
261 264 269
-270 -265
-270 -269
265 269 270
-271 -43
-271 44
43 -44 271
-272 43
-272 -44
-43 44 272
-273 -271
-273 -272
271 272 273
-274 43
-274 44
-43 -44 274
-275 270
-275 -273
-270 273 275
-276 -270
-276 273
270 -273 276
-277 -275
-277 -276
275 276 277
-278 -270
-278 -273
270 273 278
-279 -274
-279 -278
274 278 279
-280 -44
-280 45
44 -45 280
-281 44
-281 -45
-44 45 281
-282 -280
-282 -281
280 281 282
-283 44
-283 45
-44 -45 283
-284 279
-284 -282
-279 282 284
-285 -279
-285 282
279 -282 285
-286 -284
-286 -285
284 285 286
-287 -279
-287 -282
279 282 287
-288 -283
-288 -287
283 287 288
-289 -45
-289 46
45 -46 289
-290 45
-290 -46
-45 46 290
-291 -289
-291 -290
289 290 291
-292 45
-292 46
-45 -46 292
-293 288
-293 -291
-288 291 293
-294 -288
-294 291
288 -291 294
-295 -293
-295 -294
293 294 295
-296 -288
-296 -291
288 291 296
-297 -292
-297 -296
292 296 297
-298 -46
-298 47
46 -47 298
-299 46
-299 -47
-46 47 299
-300 -298
-300 -299
298 299 300
-301 46
-301 47
-46 -47 301
-302 297
-302 -300
-297 300 302
-303 -297
-303 300
297 -300 303
-304 -302
-304 -303
302 303 304
-305 -297
-305 -300
297 300 305
-306 -301
-306 -305
301 305 306
-307 -47
-307 48
47 -48 307
-308 47
-308 -48
-47 48 308
-309 -307
-309 -308
307 308 309
-310 47
-310 48
-47 -48 310
-311 306
-311 -309
-306 309 311
-312 -306
-312 309
306 -309 312
-313 -311
-313 -312
311 312 313
-314 -306
-314 -309
306 309 314
-315 -310
-315 -314
310 314 315
-316 -48
-316 49
48 -49 316
-317 48
-317 -49
-48 49 317
-318 -316
-318 -317
316 317 318
-319 48
-319 49
-48 -49 319
-320 315
-320 -318
-315 318 320
-321 -315
-321 318
315 -318 321
-322 -320
-322 -321
320 321 322
-323 -315
-323 -318
315 318 323
-324 -319
-324 -323
319 323 324
-325 -49
-325 50
49 -50 325
-326 49
-326 -50
-49 50 326
-327 -325
-327 -326
325 326 327
-328 49
-328 50
-49 -50 328
-329 324
-329 -327
-324 327 329
-330 -324
-330 327
324 -327 330
-331 -329
-331 -330
329 330 331
-332 -324
-332 -327
324 327 332
-333 -328
-333 -332
328 332 333
-334 -50
-334 51
50 -51 334
-335 50
-335 -51
-50 51 335
-336 -334
-336 -335
334 335 336
-337 50
-337 51
-50 -51 337
-338 333
-338 -336
-333 336 338
-339 -333
-339 336
333 -336 339
-340 -338
-340 -339
338 339 340
-341 -333
-341 -336
333 336 341
-342 -337
-342 -341
337 341 342
-343 -51
-343 52
51 -52 343
-344 51
-344 -52
-51 52 344
-345 -343
-345 -344
343 344 345
-346 51
-346 52
-51 -52 346
-347 342
-347 -345
-342 345 347
-348 -342
-348 345
342 -345 348
-349 -347
-349 -348
347 348 349
-350 -342
-350 -345
342 345 350
-351 -346
-351 -350
346 350 351
-352 -52
-352 53
52 -53 352
-353 52
-353 -53
-52 53 353
-354 -352
-354 -353
352 353 354
-355 52
-355 53
-52 -53 355
-356 351
-356 -354
-351 354 356
-357 -351
-357 354
351 -354 357
-358 -356
-358 -357
356 357 358
-359 -351
-359 -354
351 354 359
-360 -355
-360 -359
355 359 360
-361 -53
-361 54
53 -54 361
-362 53
-362 -54
-53 54 362
-363 -361
-363 -362
361 362 363
-364 53
-364 54
-53 -54 364
-365 360
-365 -363
-360 363 365
-366 -360
-366 363
360 -363 366
-367 -365
-367 -366
365 366 367
-368 -360
-368 -363
360 363 368
-369 -364
-369 -368
364 368 369
-370 -54
-370 55
54 -55 370
-371 54
-371 -55
-54 55 371
-372 -370
-372 -371
370 371 372
-373 54
-373 55
-54 -55 373
-374 369
-374 -372
-369 372 374
-375 -369
-375 372
369 -372 375
-376 -374
-376 -375
374 375 376
-377 -369
-377 -372
369 372 377
-378 -373
-378 -377
373 377 378
-379 -55
-379 56
55 -56 379
-380 55
-380 -56
-55 56 380
-381 -379
-381 -380
379 380 381
-382 55
-382 56
-55 -56 382
-383 378
-383 -381
-378 381 383
-384 -378
-384 381
378 -381 384
-385 -383
-385 -384
383 384 385
-386 -378
-386 -381
378 381 386
-387 -382
-387 -386
382 386 387
-388 -56
-388 57
56 -57 388
-389 56
-389 -57
-56 57 389
-390 -388
-390 -389
388 389 390
-391 56
-391 57
-56 -57 391
-392 387
-392 -390
-387 390 392
-393 -387
-393 390
387 -390 393
-394 -392
-394 -393
392 393 394
-395 -387
-395 -390
387 390 395
-396 -391
-396 -395
391 395 396
-397 -57
-397 58
57 -58 397
-398 57
-398 -58
-57 58 398
-399 -397
-399 -398
397 398 399
-400 57
-400 58
-57 -58 400
-401 396
-401 -399
-396 399 401
-402 -396
-402 399
396 -399 402
-403 -401
-403 -402
401 402 403
-404 -396
-404 -399
396 399 404
-405 -400
-405 -404
400 404 405
-406 -58
-406 59
58 -59 406
-407 58
-407 -59
-58 59 407
-408 -406
-408 -407
406 407 408
-409 58
-409 59
-58 -59 409
-410 405
-410 -408
-405 408 410
-411 -405
-411 408
405 -408 411
-412 -410
-412 -411
410 411 412
-413 -405
-413 -408
405 408 413
-414 -409
-414 -413
409 413 414
-415 -59
-415 60
59 -60 415
-416 59
-416 -60
-59 60 416
-417 -415
-417 -416
415 416 417
-418 59
-418 60
-59 -60 418
-419 414
-419 -417
-414 417 419
-420 -414
-420 417
414 -417 420
-421 -419
-421 -420
419 420 421
-422 -414
-422 -417
414 417 422
-423 -418
-423 -422
418 422 423
-424 -60
-424 61
60 -61 424
-425 60
-425 -61
-60 61 425
-426 -424
-426 -425
424 425 426
-427 60
-427 61
-60 -61 427
-428 423
-428 -426
-423 426 428
-429 -423
-429 426
423 -426 429
-430 -428
-430 -429
428 429 430
-431 -423
-431 -426
423 426 431
-432 -427
-432 -431
427 431 432
-433 -61
-433 62
61 -62 433
-434 61
-434 -62
-61 62 434
-435 -433
-435 -434
433 434 435
-436 61
-436 62
-61 -62 436
-437 432
-437 -435
-432 435 437
-438 -432
-438 435
432 -435 438
-439 -437
-439 -438
437 438 439
-440 -432
-440 -435
432 435 440
-441 -436
-441 -440
436 440 441
-442 -62
-442 63
62 -63 442
-443 62
-443 -63
-62 63 443
-444 -442
-444 -443
442 443 444
-445 62
-445 63
-62 -63 445
-446 441
-446 -444
-441 444 446
-447 -441
-447 444
441 -444 447
-448 -446
-448 -447
446 447 448
-449 -441
-449 -444
441 444 449
-450 -445
-450 -449
445 449 450
-451 -63
-451 64
63 -64 451
-452 63
-452 -64
-63 64 452
-453 -451
-453 -452
451 452 453
-454 63
-454 64
-63 -64 454
-455 450
-455 -453
-450 453 455
-456 -450
-456 453
450 -453 456
-457 -455
-457 -456
455 456 457
-458 -450
-458 -453
450 453 458
-459 -454
-459 -458
454 458 459
-460 -64
-460 65
64 -65 460
-461 64
-461 -65
-64 65 461
-462 -460
-462 -461
460 461 462
-463 64
-463 65
-64 -65 463
-464 459
-464 -462
-459 462 464
-465 -459
-465 462
459 -462 465
-466 -464
-466 -465
464 465 466
-467 -459
-467 -462
459 462 467
-468 -463
-468 -467
463 467 468
-469 -65
-469 66
65 -66 469
-470 65
-470 -66
-65 66 470
-471 -469
-471 -470
469 470 471
-472 65
-472 66
-65 -66 472
-473 468
-473 -471
-468 471 473
-474 -468
-474 471
468 -471 474
-475 -473
-475 -474
473 474 475
-476 -468
-476 -471
468 471 476
-477 -472
-477 -476
472 476 477
-478 -66
-478 67
66 -67 478
-479 66
-479 -67
-66 67 479
-480 -478
-480 -479
478 479 480
-481 66
-481 67
-66 -67 481
-482 477
-482 -480
-477 480 482
-483 -477
-483 480
477 -480 483
-484 -482
-484 -483
482 483 484
-485 -477
-485 -480
477 480 485
-486 -481
-486 -485
481 485 486
-487 25
-487 -115
-25 115 487
-488 -25
-488 27
25 -27 488
-489 -487
-489 -488
487 488 489
-490 25
-490 -124
-25 124 490
-491 -25
-491 28
25 -28 491
-492 -490
-492 -491
490 491 492
-493 25
-493 -133
-25 133 493
-494 -25
-494 29
25 -29 494
-495 -493
-495 -494
493 494 495
-496 25
-496 -142
-25 142 496
-497 -25
-497 30
25 -30 497
-498 -496
-498 -497
496 497 498
-499 25
-499 -151
-25 151 499
-500 -25
-500 31
25 -31 500
-501 -499
-501 -500
499 500 501
-502 25
-502 -160
-25 160 502
-503 -25
-503 32
25 -32 503
-504 -502
-504 -503
502 503 504
-505 25
-505 -169
-25 169 505
-506 -25
-506 33
25 -33 506
-507 -505
-507 -506
505 506 507
-508 25
-508 -178
-25 178 508
-509 -25
-509 34
25 -34 509
-510 -508
-510 -509
508 509 510
-511 25
-511 -187
-25 187 511
-512 -25
-512 35
25 -35 512
-513 -511
-513 -512
511 512 513
-514 25
-514 -196
-25 196 514
-515 -25
-515 36
25 -36 515
-516 -514
-516 -515
514 515 516
-517 25
-517 -205
-25 205 517
-518 -25
-518 37
25 -37 518
-519 -517
-519 -518
517 518 519
-520 25
-520 -214
-25 214 520
-521 -25
-521 38
25 -38 521
-522 -520
-522 -521
520 521 522
-523 25
-523 -223
-25 223 523
-524 -25
-524 39
25 -39 524
-525 -523
-525 -524
523 524 525
-526 25
-526 -232
-25 232 526
-527 -25
-527 40
25 -40 527
-528 -526
-528 -527
526 527 528
-529 25
-529 -241
-25 241 529
-530 -25
-530 41
25 -41 530
-531 -529
-531 -530
529 530 531
-532 25
-532 -250
-25 250 532
-533 -25
-533 42
25 -42 533
-534 -532
-534 -533
532 533 534
-535 25
-535 -259
-25 259 535
-536 -25
-536 43
25 -43 536
-537 -535
-537 -536
535 536 537
-538 25
-538 -268
-25 268 538
-539 -25
-539 44
25 -44 539
-540 -538
-540 -539
538 539 540
-541 25
-541 -277
-25 277 541
-542 -25
-542 45
25 -45 542
-543 -541
-543 -542
541 542 543
-544 25
-544 -286
-25 286 544
-545 -25
-545 46
25 -46 545
-546 -544
-546 -545
544 545 546
-547 25
-547 -295
-25 295 547
-548 -25
-548 47
25 -47 548
-549 -547
-549 -548
547 548 549
-550 25
-550 -304
-25 304 550
-551 -25
-551 48
25 -48 551
-552 -550
-552 -551
550 551 552
-553 25
-553 -313
-25 313 553
-554 -25
-554 49
25 -49 554
-555 -553
-555 -554
553 554 555
-556 25
-556 -322
-25 322 556
-557 -25
-557 50
25 -50 557
-558 -556
-558 -557
556 557 558
-559 25
-559 -331
-25 331 559
-560 -25
-560 51
25 -51 560
-561 -559
-561 -560
559 560 561
-562 25
-562 -340
-25 340 562
-563 -25
-563 52
25 -52 563
-564 -562
-564 -563
562 563 564
-565 25
-565 -349
-25 349 565
-566 -25
-566 53
25 -53 566
-567 -565
-567 -566
565 566 567
-568 25
-568 -358
-25 358 568
-569 -25
-569 54
25 -54 569
-570 -568
-570 -569
568 569 570
-571 25
-571 -367
-25 367 571
-572 -25
-572 55
25 -55 572
-573 -571
-573 -572
571 572 573
-574 25
-574 -376
-25 376 574
-575 -25
-575 56
25 -56 575
-576 -574
-576 -575
574 575 576
-577 25
-577 -385
-25 385 577
-578 -25
-578 57
25 -57 578
-579 -577
-579 -578
577 578 579
-580 25
-580 -394
-25 394 580
-581 -25
-581 58
25 -58 581
-582 -580
-582 -581
580 581 582
-583 25
-583 -403
-25 403 583
-584 -25
-584 59
25 -59 584
-585 -583
-585 -584
583 584 585
-586 25
-586 -412
-25 412 586
-587 -25
-587 60
25 -60 587
-588 -586
-588 -587
586 587 588
-589 25
-589 -421
-25 421 589
-590 -25
-590 61
25 -61 590
-591 -589
-591 -590
589 590 591
-592 25
-592 -430
-25 430 592
-593 -25
-593 62
25 -62 593
-594 -592
-594 -593
592 593 594
-595 25
-595 -439
-25 439 595
-596 -25
-596 63
25 -63 596
-597 -595
-597 -596
595 596 597
-598 25
-598 -448
-25 448 598
-599 -25
-599 64
25 -64 599
-600 -598
-600 -599
598 599 600
-601 25
-601 -457
-25 457 601
-602 -25
-602 65
25 -65 602
-603 -601
-603 -602
601 602 603
-604 25
-604 -466
-25 466 604
-605 -25
-605 66
25 -66 605
-606 -604
-606 -605
604 605 606
-607 25
-607 -475
-25 475 607
-608 -25
-608 67
25 -67 608
-609 -607
-609 -608
607 608 609
-610 25
-610 -484
-25 484 610
-611 1
-611 108
-1 -108 611
-612 -108
-612 109
108 -109 612
-613 -611
-613 -612
611 612 613
-614 2
-614 108
-2 -108 614
-615 -108
-615 -489
108 489 615
-616 -614
-616 -615
614 615 616
-617 3
-617 108
-3 -108 617
-618 -108
-618 -492
108 492 618
-619 -617
-619 -618
617 618 619
-620 4
-620 108
-4 -108 620
-621 -108
-621 -495
108 495 621
-622 -620
-622 -621
620 621 622
-623 5
-623 108
-5 -108 623
-624 -108
-624 -498
108 498 624
-625 -623
-625 -624
623 624 625
-626 6
-626 108
-6 -108 626
-627 -108
-627 -501
108 501 627
-628 -626
-628 -627
626 627 628
-629 7
-629 108
-7 -108 629
-630 -108
-630 -504
108 504 630
-631 -629
-631 -630
629 630 631
-632 8
-632 108
-8 -108 632
-633 -108
-633 -507
108 507 633
-634 -632
-634 -633
632 633 634
-635 9
-635 108
-9 -108 635
-636 -108
-636 -510
108 510 636
-637 -635
-637 -636
635 636 637
-638 10
-638 108
-10 -108 638
-639 -108
-639 -513
108 513 639
-640 -638
-640 -639
638 639 640
-641 11
-641 108
-11 -108 641
-642 -108
-642 -516
108 516 642
-643 -641
-643 -642
641 642 643
-644 12
-644 108
-12 -108 644
-645 -108
-645 -519
108 519 645
-646 -644
-646 -645
644 645 646
-647 13
-647 108
-13 -108 647
-648 -108
-648 -522
108 522 648
-649 -647
-649 -648
647 648 649
-650 14
-650 108
-14 -108 650
-651 -108
-651 -525
108 525 651
-652 -650
-652 -651
650 651 652
-653 15
-653 108
-15 -108 653
-654 -108
-654 -528
108 528 654
-655 -653
-655 -654
653 654 655
-656 16
-656 108
-16 -108 656
-657 -108
-657 -531
108 531 657
-658 -656
-658 -657
656 657 658
-659 17
-659 108
-17 -108 659
-660 -108
-660 -534
108 534 660
-661 -659
-661 -660
659 660 661
-662 18
-662 108
-18 -108 662
-663 -108
-663 -537
108 537 663
-664 -662
-664 -663
662 663 664
-665 19
-665 108
-19 -108 665
-666 -108
-666 -540
108 540 666
-667 -665
-667 -666
665 666 667
-668 20
-668 108
-20 -108 668
-669 -108
-669 -543
108 543 669
-670 -668
-670 -669
668 669 670
-671 21
-671 108
-21 -108 671
-672 -108
-672 -546
108 546 672
-673 -671
-673 -672
671 672 673
-674 22
-674 108
-22 -108 674
-675 -108
-675 -549
108 549 675
-676 -674
-676 -675
674 675 676
-677 23
-677 108
-23 -108 677
-678 -108
-678 -552
108 552 678
-679 -677
-679 -678
677 678 679
-680 24
-680 108
-24 -108 680
-681 -108
-681 -555
108 555 681
-682 -680
-682 -681
680 681 682
-683 -108
-683 -558
108 558 683
-684 -108
-684 -561
108 561 684
-685 -108
-685 -564
108 564 685
-686 -108
-686 -567
108 567 686
-687 -108
-687 -570
108 570 687
-688 -108
-688 -573
108 573 688
-689 -108
-689 -576
108 576 689
-690 -108
-690 -579
108 579 690
-691 -108
-691 -582
108 582 691
-692 -108
-692 -585
108 585 692
-693 -108
-693 -588
108 588 693
-694 -108
-694 -591
108 591 694
-695 -108
-695 -594
108 594 695
-696 -108
-696 -597
108 597 696
-697 -108
-697 -600
108 600 697
-698 -108
-698 -603
108 603 698
-699 -108
-699 -606
108 606 699
-700 -108
-700 -609
108 609 700
-701 -108
-701 610
108 -610 701
-702 -67
-702 486
67 -486 702
-703 25
-703 -702
-25 702 703
703
